635,110
617,207
817,139
874,140
808,279
716,358
761,366
738,388
716,358
621,406
657,423
617,207
635,110
269,107
441,406
561,776
782,719
776,593
738,388
808,279
1166,249
1093,705
874,140
871,216
927,745
641,486
441,406
291,406
444,443
540,600
491,780
561,776
448,639
307,596
444,443
540,600
1093,705
